(set-logic HORN)
(declare-fun !inv3 (Int (Array Int Int) Int Int Int Int Int ) Bool)
(declare-fun !inv2 (Int (Array Int Int) Int Int Int Int ) Bool)
(declare-fun !inv0 (Int (Array Int Int) Int Int ) Bool)
(declare-fun !inv1 (Int (Array Int Int) Int Int Int ) Bool)
(assert (forall ((volArray@4 (Array Int Int))(CELLCOUNT_4@0 Int)(volArray@0 (Array Int Int))(.volArray!size@0 Int)(i@0 Int)(j@0 Int)(k@0 Int)(volArray@1 (Array Int Int))(volArray@2 (Array Int Int))(volArray@3 (Array Int Int))(k@1 Int)) (=> (and (!inv2 |CELLCOUNT_4@0| |volArray@4| |.volArray!size@0| |i@0| |j@0| |k@0|) (= |volArray@1| (store |volArray@0| (- (* |k@0| 4) 4) (select |volArray@0| (- (* |k@0| 4) 4)))) (= |volArray@2| (store |volArray@1| (- (* |k@0| 4) 3) (select |volArray@1| (- (* |k@0| 4) 3)))) (= |volArray@3| (store |volArray@2| (- (* |k@0| 4) 1) (select |volArray@2| (- (* |k@0| 4) 1)))) (= |k@1| (+ |k@0| 1)) (<= |k@0| |CELLCOUNT_4@0|) (>= 3 2) (= |volArray@0| (store |volArray@4| (- (* |k@0| 4) 2) 3))) (!inv2 |CELLCOUNT_4@0| |volArray@3| |.volArray!size@0| |i@0| |j@0| |k@1|))))
(assert (forall ((volArray@4 (Array Int Int))(CELLCOUNT_4@0 Int)(volArray@0 (Array Int Int))(.volArray!size@0 Int)(i@0 Int)(j@0 Int)(k@0 Int)(volArray@1 (Array Int Int))(volArray@2 (Array Int Int))(volArray@3 (Array Int Int))(k@1 Int)) (=> (and (!inv2 |CELLCOUNT_4@0| |volArray@4| |.volArray!size@0| |i@0| |j@0| |k@0|) (= |volArray@1| (store |volArray@0| (- (* |k@0| 4) 4) (select |volArray@0| (- (* |k@0| 4) 4)))) (= |volArray@2| (store |volArray@1| (- (* |k@0| 4) 3) (select |volArray@1| (- (* |k@0| 4) 3)))) (= |volArray@3| (store |volArray@2| (- (* |k@0| 4) 1) (select |volArray@2| (- (* |k@0| 4) 1)))) (= |k@1| (+ |k@0| 1)) (<= |k@0| |CELLCOUNT_4@0|) (not (>= 3 2)) (= |volArray@0| (store |volArray@4| (- (* |k@0| 4) 2) 0))) (!inv2 |CELLCOUNT_4@0| |volArray@3| |.volArray!size@0| |i@0| |j@0| |k@1|))))
(assert (forall ((volArray@4 (Array Int Int))(CELLCOUNT_4@0 Int)(volArray@0 (Array Int Int))(.volArray!size@0 Int)(i@0 Int)(volArray@1 (Array Int Int))(volArray@2 (Array Int Int))(volArray@3 (Array Int Int))(i@1 Int)) (=> (and (!inv0 |CELLCOUNT_4@0| |volArray@4| |.volArray!size@0| |i@0|) (= |volArray@1| (store |volArray@0| (- (* |i@0| 4) 3) (select |volArray@0| (- (* |i@0| 4) 3)))) (= |volArray@2| (store |volArray@1| (- (* |i@0| 4) 2) (select |volArray@1| (- (* |i@0| 4) 2)))) (= |volArray@3| (store |volArray@2| (- (* |i@0| 4) 1) (select |volArray@2| (- (* |i@0| 4) 1)))) (= |i@1| (+ |i@0| 1)) (<= |i@0| |CELLCOUNT_4@0|) (not (>= 5 2)) (= |volArray@0| (store |volArray@4| (- (* |i@0| 4) 4) 0))) (!inv0 |CELLCOUNT_4@0| |volArray@3| |.volArray!size@0| |i@1|))))
(assert (forall ((volArray@4 (Array Int Int))(CELLCOUNT_4@0 Int)(volArray@0 (Array Int Int))(.volArray!size@0 Int)(i@0 Int)(volArray@1 (Array Int Int))(volArray@2 (Array Int Int))(volArray@3 (Array Int Int))(i@1 Int)) (=> (and (!inv0 |CELLCOUNT_4@0| |volArray@4| |.volArray!size@0| |i@0|) (= |volArray@1| (store |volArray@0| (- (* |i@0| 4) 3) (select |volArray@0| (- (* |i@0| 4) 3)))) (= |volArray@2| (store |volArray@1| (- (* |i@0| 4) 2) (select |volArray@1| (- (* |i@0| 4) 2)))) (= |volArray@3| (store |volArray@2| (- (* |i@0| 4) 1) (select |volArray@2| (- (* |i@0| 4) 1)))) (= |i@1| (+ |i@0| 1)) (<= |i@0| |CELLCOUNT_4@0|) (>= 5 2) (= |volArray@0| (store |volArray@4| (- (* |i@0| 4) 4) 5))) (!inv0 |CELLCOUNT_4@0| |volArray@3| |.volArray!size@0| |i@1|))))
(assert (forall ((volArray@4 (Array Int Int))(CELLCOUNT_4@0 Int)(volArray@0 (Array Int Int))(.volArray!size@0 Int)(i@0 Int)(j@0 Int)(volArray@1 (Array Int Int))(volArray@2 (Array Int Int))(volArray@3 (Array Int Int))(j@1 Int)) (=> (and (!inv1 |CELLCOUNT_4@0| |volArray@4| |.volArray!size@0| |i@0| |j@0|) (= |volArray@1| (store |volArray@0| (- (* |j@0| 4) 4) (select |volArray@0| (- (* |j@0| 4) 4)))) (= |volArray@2| (store |volArray@1| (- (* |j@0| 4) 2) (select |volArray@1| (- (* |j@0| 4) 2)))) (= |volArray@3| (store |volArray@2| (- (* |j@0| 4) 1) (select |volArray@2| (- (* |j@0| 4) 1)))) (= |j@1| (+ |j@0| 1)) (<= |j@0| |CELLCOUNT_4@0|) (not (>= 7 2)) (= |volArray@0| (store |volArray@4| (- (* |j@0| 4) 3) 0))) (!inv1 |CELLCOUNT_4@0| |volArray@3| |.volArray!size@0| |i@0| |j@1|))))
(assert (forall ((volArray@4 (Array Int Int))(CELLCOUNT_4@0 Int)(volArray@0 (Array Int Int))(.volArray!size@0 Int)(i@0 Int)(j@0 Int)(volArray@1 (Array Int Int))(volArray@2 (Array Int Int))(volArray@3 (Array Int Int))(j@1 Int)) (=> (and (!inv1 |CELLCOUNT_4@0| |volArray@4| |.volArray!size@0| |i@0| |j@0|) (= |volArray@1| (store |volArray@0| (- (* |j@0| 4) 4) (select |volArray@0| (- (* |j@0| 4) 4)))) (= |volArray@2| (store |volArray@1| (- (* |j@0| 4) 2) (select |volArray@1| (- (* |j@0| 4) 2)))) (= |volArray@3| (store |volArray@2| (- (* |j@0| 4) 1) (select |volArray@2| (- (* |j@0| 4) 1)))) (= |j@1| (+ |j@0| 1)) (<= |j@0| |CELLCOUNT_4@0|) (>= 7 2) (= |volArray@0| (store |volArray@4| (- (* |j@0| 4) 3) 7))) (!inv1 |CELLCOUNT_4@0| |volArray@3| |.volArray!size@0| |i@0| |j@1|))))
(assert (forall ((CELLCOUNT_4@0 Int)(.volArray!size@0 Int)(volArray@0 (Array Int Int))(i@0 Int)) (=> (and (> (* 4 |CELLCOUNT_4@0|) 1) (= |.volArray!size@0| (* 4 |CELLCOUNT_4@0|)) (= |i@0| 1)) (!inv0 |CELLCOUNT_4@0| |volArray@0| |.volArray!size@0| |i@0|))))
(assert (forall ((CELLCOUNT_4@0 Int)(volArray@0 (Array Int Int))(.volArray!size@0 Int)(i@0 Int)(j@0 Int)) (=> (and (!inv0 |CELLCOUNT_4@0| |volArray@0| |.volArray!size@0| |i@0|) (not (<= |i@0| |CELLCOUNT_4@0|)) (= |j@0| 1)) (!inv1 |CELLCOUNT_4@0| |volArray@0| |.volArray!size@0| |i@0| |j@0|))))
(assert (forall ((CELLCOUNT_4@0 Int)(volArray@0 (Array Int Int))(.volArray!size@0 Int)(i@0 Int)(j@0 Int)(k@0 Int)) (=> (and (!inv1 |CELLCOUNT_4@0| |volArray@0| |.volArray!size@0| |i@0| |j@0|) (not (<= |j@0| |CELLCOUNT_4@0|)) (= |k@0| 1)) (!inv2 |CELLCOUNT_4@0| |volArray@0| |.volArray!size@0| |i@0| |j@0| |k@0|))))
(assert (forall ((CELLCOUNT_4@0 Int)(volArray@0 (Array Int Int))(.volArray!size@0 Int)(i@0 Int)(j@0 Int)(k@0 Int)(l@0 Int)) (=> (and (!inv2 |CELLCOUNT_4@0| |volArray@0| |.volArray!size@0| |i@0| |j@0| |k@0|) (not (<= |k@0| |CELLCOUNT_4@0|)) (= |l@0| 1)) (!inv3 |CELLCOUNT_4@0| |volArray@0| |.volArray!size@0| |i@0| |j@0| |k@0| |l@0|))))
(assert (forall ((CELLCOUNT_4@0 Int)(volArray@0 (Array Int Int))(.volArray!size@0 Int)(i@0 Int)(j@0 Int)(k@0 Int)(l@0 Int)) (=> (and (!inv3 |CELLCOUNT_4@0| |volArray@0| |.volArray!size@0| |i@0| |j@0| |k@0| |l@0|) (not (<= |l@0| |CELLCOUNT_4@0|)) (not (forall ((m@0 Int)) (=> (and (<= 0 |m@0|) (< |m@0| (* 4 |CELLCOUNT_4@0|))) (or (>= (select |volArray@0| |m@0|) 2) (= (select |volArray@0| |m@0|) 0)))))) false)))
(assert (forall ((volArray@4 (Array Int Int))(CELLCOUNT_4@0 Int)(volArray@0 (Array Int Int))(.volArray!size@0 Int)(i@0 Int)(j@0 Int)(k@0 Int)(l@0 Int)(volArray@1 (Array Int Int))(volArray@2 (Array Int Int))(volArray@3 (Array Int Int))(l@1 Int)) (=> (and (!inv3 |CELLCOUNT_4@0| |volArray@4| |.volArray!size@0| |i@0| |j@0| |k@0| |l@0|) (= |volArray@1| (store |volArray@0| (- (* |l@0| 4) 4) (select |volArray@0| (- (* |l@0| 4) 4)))) (= |volArray@2| (store |volArray@1| (- (* |l@0| 4) 3) (select |volArray@1| (- (* |l@0| 4) 3)))) (= |volArray@3| (store |volArray@2| (- (* |l@0| 4) 2) (select |volArray@2| (- (* |l@0| 4) 2)))) (= |l@1| (+ |l@0| 1)) (<= |l@0| |CELLCOUNT_4@0|) (not (>= 1 2)) (= |volArray@0| (store |volArray@4| (- (* |l@0| 4) 1) 0))) (!inv3 |CELLCOUNT_4@0| |volArray@3| |.volArray!size@0| |i@0| |j@0| |k@0| |l@1|))))
(assert (forall ((volArray@4 (Array Int Int))(CELLCOUNT_4@0 Int)(volArray@0 (Array Int Int))(.volArray!size@0 Int)(i@0 Int)(j@0 Int)(k@0 Int)(l@0 Int)(volArray@1 (Array Int Int))(volArray@2 (Array Int Int))(volArray@3 (Array Int Int))(l@1 Int)) (=> (and (!inv3 |CELLCOUNT_4@0| |volArray@4| |.volArray!size@0| |i@0| |j@0| |k@0| |l@0|) (= |volArray@1| (store |volArray@0| (- (* |l@0| 4) 4) (select |volArray@0| (- (* |l@0| 4) 4)))) (= |volArray@2| (store |volArray@1| (- (* |l@0| 4) 3) (select |volArray@1| (- (* |l@0| 4) 3)))) (= |volArray@3| (store |volArray@2| (- (* |l@0| 4) 2) (select |volArray@2| (- (* |l@0| 4) 2)))) (= |l@1| (+ |l@0| 1)) (<= |l@0| |CELLCOUNT_4@0|) (>= 1 2) (= |volArray@0| (store |volArray@4| (- (* |l@0| 4) 1) 1))) (!inv3 |CELLCOUNT_4@0| |volArray@3| |.volArray!size@0| |i@0| |j@0| |k@0| |l@1|))))
(check-sat)